10 10 3

0 57 478 68 484 90 138 249 301 137 
191 0 223 424 56 252 134 53 297 498 
205 363 0 403 327 202 401 325 298 294 
341 334 303 0 417 342 487 436 81 76 
280 488 83 368 0 178 256 291 391 214 
131 150 462 336 306 0 324 238 339 232 
138 164 480 382 211 70 0 391 127 118 
133 62 356 366 500 343 399 0 367 227 
154 364 118 319 445 425 280 280 0 437 
310 468 276 249 313 146 228 401 307 0 

114.6 0 6
114.6 1 2
114.6 2 1
114.6 3 7
114.6 4 6
114.6 5 1
114.6 6 1
114.6 7 1
114.6 8 1
114.6 9 3

